data;


param FN:= 0;
param D:= 100;
param U_Original:=
         1         1       -6.604169e-01
         2         1       -8.278315e-01
         3         1        6.931208e-01
         4         1       -3.112522e-01
         5         1       -1.258152e+00
         6         1       -1.778717e+00
         7         1        5.719798e-01
         8         1        6.054803e-01
         9         1        6.725495e-01
        10         1       -2.937385e-01
        11         1        8.294776e-01
        12         1       -9.846691e-01
        13         1       -3.613047e-01
        14         1        3.128395e-01
        15         1       -7.650133e-01
        16         1       -6.687748e-01
        17         1        2.074241e+00
        18         1        1.212964e-02
        19         1       -1.179295e+00
        20         1       -1.911675e+00
        21         1       -1.296428e+00
        22         1       -1.771858e+00
        23         1       -6.755715e-01
        24         1        1.265104e+00
        25         1        5.494273e-02
        26         1       -1.015228e+00
        27         1        2.388544e-01
        28         1       -1.140420e+00
        29         1        9.705642e-01
        30         1        2.271075e-01
        31         1       -8.481421e-01
        32         1        6.340586e-01
        33         1        6.121957e-01
        34         1        4.787170e-01
        35         1       -1.512697e+00
        36         1       -1.336898e+00
        37         1        4.441668e-01
        38         1        6.470011e-02
        39         1        3.462944e-01
        40         1       -6.242088e-01
        41         1        4.968076e-01
        42         1        3.502150e-01
        43         1        6.255185e-01
        44         1       -8.497112e-01
        45         1       -7.416893e-01
        46         1        6.628391e-01
        47         1        3.691081e+00
        48         1       -2.350546e+00
        49         1       -7.663702e-02
        50         1       -1.565760e+00
        51         1       -1.575209e+00
        52         1        1.674573e+00
        53         1        7.938263e-01
        54         1        9.741667e-01
        55         1       -1.130285e+00
        56         1        8.346740e-01
        57         1        1.107068e+00
        58         1        1.147052e-01
        59         1       -1.210149e+00
        60         1        8.880713e-01
        61         1       -7.402542e-01
        62         1       -1.898929e+00
        63         1        1.173083e+00
        64         1       -1.005561e+00
        65         1        3.531011e-01
        66         1       -8.827872e-01
        67         1        7.766709e-02
        68         1       -3.455645e-01
        69         1       -1.729753e+00
        70         1        2.031437e+00
        71         1        7.043774e-01
        72         1        5.465645e-01
        73         1        1.337819e+00
        74         1        4.089490e-01
        75         1       -1.746240e-01
        76         1       -1.373597e+00
        77         1       -2.194189e+00
        78         1       -1.186185e+00
        79         1       -1.127997e+00
        80         1       -4.259659e-01
        81         1       -1.088632e+00
        82         1       -8.852035e-01
        83         1       -5.510573e-01
        84         1       -5.472331e-01
        85         1       -4.276029e-01
        86         1       -1.259477e+00
        87         1        1.319475e+00
        88         1        9.635365e-01
        89         1       -2.091057e+00
        90         1        4.950895e-01
        91         1       -3.737485e-01
        92         1        9.763977e-01
        93         1        2.849382e-02
        94         1        1.685924e+00
        95         1       -4.628652e-01
        96         1       -6.875034e-01
        97         1       -1.290741e-01
        98         1       -4.041605e-01
        99         1       -1.046079e+00
       100         1       -7.735595e-01
         1         2        1.891173e-02
         2         2        1.853811e-01
         3         2       -1.066549e+00
         4         2       -3.399504e-01
         5         2        5.320600e-01
         6         2        4.358250e-01
         7         2       -5.709816e-01
         8         2       -1.254627e+00
         9         2       -4.496683e-01
        10         2       -1.331034e-01
        11         2       -1.437049e-02
        12         2       -3.797884e-02
        13         2       -5.486857e-01
        14         2       -1.564680e+00
        15         2        5.610450e-01
        16         2       -4.020442e-01
        17         2       -1.070926e+00
        18         2        2.768974e+00
        19         2       -1.186997e+00
        20         2       -1.668277e-01
        21         2        9.631805e-01
        22         2        2.074304e+00
        23         2       -7.046358e-01
        24         2       -1.513798e+00
        25         2       -1.119361e+00
        26         2       -1.062369e+00
        27         2       -3.605477e-01
        28         2       -7.868441e-01
        29         2        1.515006e+00
        30         2       -7.686338e-01
        31         2       -1.170336e+00
        32         2       -4.171269e-01
        33         2       -1.829680e-01
        34         2        1.971842e-01
        35         2        1.481296e+00
        36         2       -9.806307e-01
        37         2       -1.176803e+00
        38         2        1.043116e+00
        39         2        4.947618e-01
        40         2        6.621404e-01
        41         2        8.588724e-01
        42         2       -7.429405e-02
        43         2        1.600094e+00
        44         2        1.542740e-01
        45         2       -3.354330e-01
        46         2        6.129772e-01
        47         2       -1.470942e+00
        48         2        1.988002e+00
        49         2       -2.557658e-01
        50         2        3.867748e-01
        51         2       -3.494961e-01
        52         2        1.137811e+00
        53         2        1.447439e-01
        54         2       -1.182820e+00
        55         2       -6.820718e-01
        56         2        5.245855e-01
        57         2        4.059309e-01
        58         2        4.840432e-01
        59         2       -1.330351e-01
        60         2       -4.618105e-01
        61         2        1.898822e+00
        62         2        2.002222e-01
        63         2       -4.230258e-01
        64         2        1.545901e+00
        65         2        1.082836e+00
        66         2        7.600896e-01
        67         2        1.777929e+00
        68         2        5.149952e-01
        69         2       -1.372375e+00
        70         2        5.750666e-01
        71         2       -1.007990e+00
        72         2       -4.534200e-01
        73         2       -2.409300e-01
        74         2       -1.648803e-01
        75         2        7.992437e-01
        76         2       -1.675807e-01
        77         2        1.153885e+00
        78         2        2.257970e-01
        79         2        8.932128e-01
        80         2       -7.979761e-02
        81         2       -6.821614e-01
        82         2        6.601016e-01
        83         2       -1.255316e+00
        84         2        2.023062e+00
        85         2       -4.449036e-01
        86         2        7.555007e-01
        87         2       -6.601114e-01
        88         2        6.101866e-01
        89         2       -7.523203e-01
        90         2        5.815382e-01
        91         2       -5.835910e-01
        92         2       -4.023050e-01
        93         2        2.546569e-01
        94         2        1.052368e+00
        95         2       -4.879238e-01
        96         2        7.269002e-01
        97         2       -3.131049e-02
        98         2       -1.943330e-01
        99         2       -2.579509e+00
       100         2        1.054449e+00
         1         3       -4.170595e-01
         2         3        1.190183e+00
         3         3       -8.238131e-02
         4         3       -9.390714e-02
         5         3       -2.532209e-01
         6         3       -6.785669e-01
         7         3        8.834776e-01
         8         3       -4.720183e-02
         9         3       -6.861436e-01
        10         3       -2.771087e-01
        11         3       -1.940019e-01
        12         3        9.419477e-03
        13         3       -1.663400e+00
        14         3        2.184199e+00
        15         3       -5.283612e-01
        16         3       -9.682265e-02
        17         3       -2.558792e-03
        18         3       -3.795186e-01
        19         3       -5.316020e-01
        20         3        2.998696e-01
        21         3       -1.727616e+00
        22         3        2.391005e-02
        23         3        5.070443e-01
        24         3        1.273522e+00
        25         3       -1.651649e+00
        26         3       -5.930205e-01
        27         3        4.862890e-01
        28         3        2.493947e-02
        29         3        1.803050e-01
        30         3       -1.406093e+00
        31         3       -6.649503e-01
        32         3       -8.097395e-01
        33         3        3.169256e-01
        34         3       -1.134694e+00
        35         3       -5.271613e-01
        36         3       -1.572244e-01
        37         3        1.714237e-01
        38         3        8.296055e-01
        39         3       -3.137910e-01
        40         3       -1.076152e-01
        41         3       -6.949907e-01
        42         3       -1.196325e+00
        43         3       -8.802635e-02
        44         3        2.170394e+00
        45         3        1.077330e+00
        46         3        1.187185e+00
        47         3        3.343805e-01
        48         3        9.361991e-01
        49         3        2.817596e-01
        50         3        7.117174e-01
        51         3       -1.006044e+00
        52         3       -6.746285e-01
        53         3        6.467836e-01
        54         3        1.451038e+00
        55         3        1.111943e+00
        56         3       -4.189127e-01
        57         3       -8.389724e-01
        58         3       -5.538477e-01
        59         3        7.620446e-01
        60         3       -5.454760e-01
        61         3       -7.480435e-01
        62         3       -2.722303e-02
        63         3        1.167190e+00
        64         3       -1.242653e+00
        65         3        1.484269e+00
        66         3       -9.793529e-01
        67         3        3.741633e-01
        68         3        2.741803e-01
        69         3       -5.649962e-01
        70         3       -3.539177e+00
        71         3        9.522345e-01
        72         3        1.359672e+00
        73         3       -4.974816e-02
        74         3       -8.986459e-01
        75         3        5.663806e-01
        76         3        6.103968e-01
        77         3       -1.267178e+00
        78         3       -5.185399e-01
        79         3        9.295679e-01
        80         3       -2.233037e-01
        81         3       -1.548969e-01
        82         3        1.206731e+00
        83         3       -5.995908e-01
        84         3        8.685767e-01
        85         3        5.304873e-01
        86         3       -3.268425e-01
        87         3        8.901910e-01
        88         3        9.628004e-01
        89         3        1.444943e+00
        90         3       -1.351809e+00
        91         3        1.666579e-01
        92         3       -2.583677e-01
        93         3        1.612726e+00
        94         3       -3.598186e-01
        95         3        2.352702e-01
        96         3       -4.703023e-02
        97         3       -6.403223e-01
        98         3        1.712013e+00
        99         3        9.151555e-01
       100         3       -6.423588e-01
         1         4       -1.809697e-01
         2         4       -8.561637e-02
         3         4        4.806908e-01
         4         4        9.764287e-01
         5         4        6.925622e-01
         6         4        1.099455e+00
         7         4        1.580827e+00
         8         4        5.459819e-01
         9         4       -1.349080e+00
        10         4       -1.458003e-01
        11         4        5.447647e-01
        12         4       -1.131610e+00
        13         4       -3.992515e-01
        14         4        6.100329e-01
        15         4        8.947612e-01
        16         4       -1.030824e+00
        17         4        1.377121e+00
        18         4       -2.812848e-01
        19         4        9.088663e-02
        20         4       -7.483288e-01
        21         4       -4.789022e-01
        22         4       -1.234748e+00
        23         4        1.009546e+00
        24         4        7.280566e-01
        25         4        9.147718e-01
        26         4        1.488959e-01
        27         4        1.321946e+00
        28         4       -7.909033e-01
        29         4        1.924696e+00
        30         4        1.083951e+00
        31         4        3.461110e+00
        32         4        1.745440e+00
        33         4        4.750080e-01
        34         4       -7.761391e-01
        35         4       -1.563020e+00
        36         4       -5.576146e-01
        37         4       -1.612068e+00
        38         4        1.746423e+00
        39         4       -5.992716e-01
        40         4       -9.052954e-01
        41         4        7.331746e-01
        42         4       -6.691622e-01
        43         4        1.166619e+00
        44         4       -1.151354e+00
        45         4        1.854109e-01
        46         4        6.081378e-01
        47         4       -1.852184e+00
        48         4        1.418127e+00
        49         4        2.293910e-01
        50         4        2.340414e-01
        51         4       -2.616503e+00
        52         4       -1.205811e+00
        53         4        8.233979e-01
        54         4        3.132514e-01
        55         4       -1.276747e+00
        56         4        6.307391e-01
        57         4       -7.365605e-01
        58         4       -1.968010e-02
        59         4        1.357392e-01
        60         4        9.144634e-01
        61         4       -4.867207e-01
        62         4        9.840223e-01
        63         4       -9.666331e-01
        64         4       -5.038349e-01
        65         4        1.944878e-01
        66         4        1.991494e-01
        67         4       -6.811600e-03
        68         4        9.826063e-02
        69         4       -1.513792e+00
        70         4       -1.329606e+00
        71         4        4.524130e-01
        72         4       -5.814567e-01
        73         4       -2.327924e+00
        74         4       -1.764667e+00
        75         4        2.068939e+00
        76         4       -9.896267e-01
        77         4       -7.164138e-01
        78         4        1.208723e+00
        79         4       -4.583130e-01
        80         4       -2.131645e+00
        81         4        2.411974e-01
        82         4       -2.539661e-01
        83         4       -5.443787e-01
        84         4       -4.524688e-01
        85         4        1.763793e-01
        86         4        1.304762e+00
        87         4        1.008414e+00
        88         4        1.155915e+00
        89         4       -4.058649e-01
        90         4       -1.345330e+00
        91         4        1.634394e+00
        92         4       -1.314920e-01
        93         4        9.927800e-01
        94         4       -1.316973e-01
        95         4       -8.495885e-01
        96         4        1.781931e+00
        97         4        1.752691e+00
        98         4        4.846026e-01
        99         4       -6.549979e-02
       100         4       -6.630715e-01
         1         5        2.172844e-01
         2         5        1.830520e-01
         3         5        3.479937e-01
         4         5        1.242920e+00
         5         5       -1.243562e+00
         6         5       -1.048246e+00
         7         5       -2.712303e-01
         8         5        4.950992e-01
         9         5        2.221193e-01
        10         5        1.263136e-01
        11         5       -1.445008e+00
        12         5        6.154273e-01
        13         5       -1.170441e+00
        14         5        5.561058e-01
        15         5        9.893094e-01
        16         5       -2.365466e-01
        17         5        8.214925e-01
        18         5        1.321293e+00
        19         5       -3.700289e-01
        20         5       -3.810434e-02
        21         5        3.705736e-01
        22         5        4.360981e-02
        23         5       -4.378811e-01
        24         5        1.516125e+00
        25         5       -4.236761e-01
        26         5        6.408332e-02
        27         5       -2.079429e+00
        28         5        5.505747e-02
        29         5        2.179528e+00
        30         5        8.307267e-01
        31         5        2.171304e-01
        32         5        3.993067e-01
        33         5        9.031558e-01
        34         5        7.477782e-01
        35         5       -5.806824e-01
        36         5       -4.530169e-02
        37         5        1.451881e+00
        38         5        4.808114e-01
        39         5        2.026304e+00
        40         5       -2.269420e-01
        41         5       -1.388913e+00
        42         5        5.672585e-01
        43         5       -2.008762e+00
        44         5        3.836345e-01
        45         5        5.766385e-01
        46         5        1.286477e+00
        47         5        4.886528e-01
        48         5        1.883503e+00
        49         5        1.575212e+00
        50         5       -8.451987e-01
        51         5       -1.190721e+00
        52         5       -6.331766e-01
        53         5        1.267810e+00
        54         5        4.617621e-01
        55         5       -1.518310e+00
        56         5        2.506906e-01
        57         5        2.359743e-01
        58         5       -6.345178e-01
        59         5       -1.157044e-01
        60         5        1.735699e-01
        61         5        4.456458e-01
        62         5       -7.400311e-01
        63         5       -1.110147e+00
        64         5       -2.606859e-01
        65         5       -1.148677e+00
        66         5       -3.296560e-01
        67         5       -1.027974e+00
        68         5       -2.741411e-01
        69         5        9.495923e-01
        70         5       -2.746862e+00
        71         5        3.518601e-01
        72         5        1.720827e+00
        73         5        8.553120e-01
        74         5       -7.291043e-01
        75         5       -2.621249e-01
        76         5       -1.071936e+00
        77         5       -6.137466e-01
        78         5       -1.015371e+00
        79         5        6.506116e-01
        80         5        7.092418e-01
        81         5        1.808920e-01
        82         5        1.173260e+00
        83         5        5.224283e-01
        84         5       -2.504987e+00
        85         5        1.763765e+00
        86         5        7.291160e-01
        87         5       -7.721534e-01
        88         5        2.413930e-03
        89         5        8.720133e-01
        90         5        2.959363e-01
        91         5       -3.817471e-01
        92         5        1.159345e+00
        93         5        1.303340e+00
        94         5       -1.373144e+00
        95         5       -3.539400e-01
        96         5        8.815063e-01
        97         5        1.857769e+00
        98         5       -1.529890e-01
        99         5        9.377373e-01
       100         5        8.614177e-01
;
param X_Original:=
    1       -9.251605e-01
    2       -1.264771e+00
    3       -2.287983e+00
    4        1.486143e-01
    5        4.679957e-01
    6        8.313572e-01
    7       -1.237153e+00
    8        1.385947e+00
    9       -1.073678e-01
   10       -2.345928e+00
   11        5.558834e-01
   12        8.480889e-01
   13        5.007410e-01
   14       -1.297765e+00
   15        7.311241e-01
   16        1.225208e-01
   17       -5.511645e-02
   18        5.136498e-01
   19        1.132271e+00
   20        9.637987e-01
   21        2.770502e+00
   22        6.466508e-01
   23        5.727060e-02
   24       -1.524185e+00
   25       -1.394409e+00
   26       -6.069650e-01
   27       -1.258635e+00
   28       -6.426134e-01
   29       -9.140234e-01
   30       -3.055754e-02
   31        2.304789e-01
   32       -4.039134e-01
   33       -5.201273e-01
   34        2.324022e+00
   35        6.489694e-01
   36       -9.894649e-04
   37       -6.841055e-01
   38       -8.654458e-01
   39        9.549552e-01
   40       -5.206945e-01
   41        2.472000e-01
   42       -1.098883e+00
   43        1.570496e-01
   44        1.104928e-01
   45        2.213944e+00
   46       -5.064679e-01
   47       -9.163237e-01
   48        3.299915e-01
   49        4.851666e-01
   50       -3.762847e-01
   51       -5.623252e-01
   52        1.708532e+00
   53        1.499663e+00
   54       -1.064259e-01
   55        2.673550e-01
   56        8.103609e-01
   57       -4.977093e-01
   58       -8.974983e-01
   59       -3.187867e-01
   60        5.333946e-01
   61        8.166063e-03
   62       -5.767995e-01
   63        6.039968e-01
   64       -4.104962e-01
   65        9.095127e-01
   66        1.574924e+00
   67        5.601815e-01
   68        2.783501e-01
   69        1.507175e+00
   70        4.840109e+00
   71       -1.264716e+00
   72        6.270392e-01
   73       -8.729588e-01
   74       -2.588247e+00
   75        3.932941e-02
   76       -1.545622e+00
   77       -1.017815e+00
   78       -1.184878e+00
   79       -1.074891e+00
   80        1.388227e+00
   81       -7.369769e-01
   82        1.209122e-01
   83       -6.691684e-01
   84        7.338848e-01
   85        1.120043e+00
   86        5.115872e-01
   87        5.207050e-02
   88       -1.436345e+00
   89       -3.784290e-01
   90        1.180278e+00
   91       -2.071839e+00
   92        9.325491e-02
   93       -1.378660e+00
   94       -6.644693e-01
   95       -6.768767e-01
   96        1.620284e-02
   97       -7.435553e-01
   98       -7.865296e-01
   99       -1.474563e-01
  100        6.509809e-01
;
param outliervec_original :=
    1    1
    2    0
    3    1
    4    1
    5    0
    6    0
    7    1
    8    1
    9    1
   10    1
   11    1
   12    1
   13    1
   14    1
   15    0
   16    1
   17    1
   18    1
   19    1
   20    1
   21    0
   22    1
   23    1
   24    1
   25    1
   26    1
   27    1
   28    1
   29    1
   30    1
   31    1
   32    1
   33    1
   34    1
   35    1
   36    1
   37    1
   38    0
   39    1
   40    1
   41    1
   42    1
   43    1
   44    1
   45    1
   46    1
   47    1
   48    1
   49    1
   50    1
   51    1
   52    0
   53    1
   54    1
   55    1
   56    1
   57    1
   58    1
   59    1
   60    1
   61    1
   62    1
   63    1
   64    1
   65    1
   66    0
   67    0
   68    1
   69    1
   70    0
   71    1
   72    1
   73    1
   74    1
   75    1
   76    1
   77    1
   78    1
   79    1
   80    1
   81    1
   82    1
   83    1
   84    1
   85    1
   86    0
   87    1
   88    1
   89    1
   90    1
   91    1
   92    1
   93    1
   94    1
   95    1
   96    0
   97    1
   98    1
   99    1
  100    1
;
param d:= 56;
param r:=5;
param p:=0.880000;
param M:=1000;
param U:=
         1         1       -8.278315e-01
         2         1       -3.112522e-01
         3         1       -1.258152e+00
         4         1       -1.778717e+00
         5         1        5.719798e-01
         6         1       -9.846691e-01
         7         1       -3.613047e-01
         8         1       -7.650133e-01
         9         1       -6.687748e-01
        10         1       -1.911675e+00
        11         1       -1.296428e+00
        12         1        1.265104e+00
        13         1       -1.015228e+00
        14         1        2.388544e-01
        15         1       -1.140420e+00
        16         1        9.705642e-01
        17         1        2.271075e-01
        18         1        6.340586e-01
        19         1        6.121957e-01
        20         1        4.787170e-01
        21         1       -1.336898e+00
        22         1        4.441668e-01
        23         1        6.470011e-02
        24         1        3.462944e-01
        25         1        4.968076e-01
        26         1        6.255185e-01
        27         1        6.628391e-01
        28         1        3.691081e+00
        29         1       -2.350546e+00
        30         1       -1.565760e+00
        31         1        1.674573e+00
        32         1        8.346740e-01
        33         1       -1.210149e+00
        34         1       -1.898929e+00
        35         1       -8.827872e-01
        36         1        7.766709e-02
        37         1       -3.455645e-01
        38         1       -1.729753e+00
        39         1        2.031437e+00
        40         1        7.043774e-01
        41         1       -4.259659e-01
        42         1       -1.088632e+00
        43         1       -8.852035e-01
        44         1       -5.510573e-01
        45         1       -5.472331e-01
        46         1       -1.259477e+00
        47         1        9.635365e-01
        48         1       -2.091057e+00
        49         1        4.950895e-01
        50         1       -3.737485e-01
        51         1        9.763977e-01
        52         1        2.849382e-02
        53         1       -4.628652e-01
        54         1       -6.875034e-01
        55         1       -1.290741e-01
        56         1       -4.041605e-01
         1         2        1.853811e-01
         2         2       -3.399504e-01
         3         2        5.320600e-01
         4         2        4.358250e-01
         5         2       -5.709816e-01
         6         2       -3.797884e-02
         7         2       -5.486857e-01
         8         2        5.610450e-01
         9         2       -4.020442e-01
        10         2       -1.668277e-01
        11         2        9.631805e-01
        12         2       -1.513798e+00
        13         2       -1.062369e+00
        14         2       -3.605477e-01
        15         2       -7.868441e-01
        16         2        1.515006e+00
        17         2       -7.686338e-01
        18         2       -4.171269e-01
        19         2       -1.829680e-01
        20         2        1.971842e-01
        21         2       -9.806307e-01
        22         2       -1.176803e+00
        23         2        1.043116e+00
        24         2        4.947618e-01
        25         2        8.588724e-01
        26         2        1.600094e+00
        27         2        6.129772e-01
        28         2       -1.470942e+00
        29         2        1.988002e+00
        30         2        3.867748e-01
        31         2        1.137811e+00
        32         2        5.245855e-01
        33         2       -1.330351e-01
        34         2        2.002222e-01
        35         2        7.600896e-01
        36         2        1.777929e+00
        37         2        5.149952e-01
        38         2       -1.372375e+00
        39         2        5.750666e-01
        40         2       -1.007990e+00
        41         2       -7.979761e-02
        42         2       -6.821614e-01
        43         2        6.601016e-01
        44         2       -1.255316e+00
        45         2        2.023062e+00
        46         2        7.555007e-01
        47         2        6.101866e-01
        48         2       -7.523203e-01
        49         2        5.815382e-01
        50         2       -5.835910e-01
        51         2       -4.023050e-01
        52         2        2.546569e-01
        53         2       -4.879238e-01
        54         2        7.269002e-01
        55         2       -3.131049e-02
        56         2       -1.943330e-01
         1         3        1.190183e+00
         2         3       -9.390714e-02
         3         3       -2.532209e-01
         4         3       -6.785669e-01
         5         3        8.834776e-01
         6         3        9.419477e-03
         7         3       -1.663400e+00
         8         3       -5.283612e-01
         9         3       -9.682265e-02
        10         3        2.998696e-01
        11         3       -1.727616e+00
        12         3        1.273522e+00
        13         3       -5.930205e-01
        14         3        4.862890e-01
        15         3        2.493947e-02
        16         3        1.803050e-01
        17         3       -1.406093e+00
        18         3       -8.097395e-01
        19         3        3.169256e-01
        20         3       -1.134694e+00
        21         3       -1.572244e-01
        22         3        1.714237e-01
        23         3        8.296055e-01
        24         3       -3.137910e-01
        25         3       -6.949907e-01
        26         3       -8.802635e-02
        27         3        1.187185e+00
        28         3        3.343805e-01
        29         3        9.361991e-01
        30         3        7.117174e-01
        31         3       -6.746285e-01
        32         3       -4.189127e-01
        33         3        7.620446e-01
        34         3       -2.722303e-02
        35         3       -9.793529e-01
        36         3        3.741633e-01
        37         3        2.741803e-01
        38         3       -5.649962e-01
        39         3       -3.539177e+00
        40         3        9.522345e-01
        41         3       -2.233037e-01
        42         3       -1.548969e-01
        43         3        1.206731e+00
        44         3       -5.995908e-01
        45         3        8.685767e-01
        46         3       -3.268425e-01
        47         3        9.628004e-01
        48         3        1.444943e+00
        49         3       -1.351809e+00
        50         3        1.666579e-01
        51         3       -2.583677e-01
        52         3        1.612726e+00
        53         3        2.352702e-01
        54         3       -4.703023e-02
        55         3       -6.403223e-01
        56         3        1.712013e+00
         1         4       -8.561637e-02
         2         4        9.764287e-01
         3         4        6.925622e-01
         4         4        1.099455e+00
         5         4        1.580827e+00
         6         4       -1.131610e+00
         7         4       -3.992515e-01
         8         4        8.947612e-01
         9         4       -1.030824e+00
        10         4       -7.483288e-01
        11         4       -4.789022e-01
        12         4        7.280566e-01
        13         4        1.488959e-01
        14         4        1.321946e+00
        15         4       -7.909033e-01
        16         4        1.924696e+00
        17         4        1.083951e+00
        18         4        1.745440e+00
        19         4        4.750080e-01
        20         4       -7.761391e-01
        21         4       -5.576146e-01
        22         4       -1.612068e+00
        23         4        1.746423e+00
        24         4       -5.992716e-01
        25         4        7.331746e-01
        26         4        1.166619e+00
        27         4        6.081378e-01
        28         4       -1.852184e+00
        29         4        1.418127e+00
        30         4        2.340414e-01
        31         4       -1.205811e+00
        32         4        6.307391e-01
        33         4        1.357392e-01
        34         4        9.840223e-01
        35         4        1.991494e-01
        36         4       -6.811600e-03
        37         4        9.826063e-02
        38         4       -1.513792e+00
        39         4       -1.329606e+00
        40         4        4.524130e-01
        41         4       -2.131645e+00
        42         4        2.411974e-01
        43         4       -2.539661e-01
        44         4       -5.443787e-01
        45         4       -4.524688e-01
        46         4        1.304762e+00
        47         4        1.155915e+00
        48         4       -4.058649e-01
        49         4       -1.345330e+00
        50         4        1.634394e+00
        51         4       -1.314920e-01
        52         4        9.927800e-01
        53         4       -8.495885e-01
        54         4        1.781931e+00
        55         4        1.752691e+00
        56         4        4.846026e-01
         1         5        1.830520e-01
         2         5        1.242920e+00
         3         5       -1.243562e+00
         4         5       -1.048246e+00
         5         5       -2.712303e-01
         6         5        6.154273e-01
         7         5       -1.170441e+00
         8         5        9.893094e-01
         9         5       -2.365466e-01
        10         5       -3.810434e-02
        11         5        3.705736e-01
        12         5        1.516125e+00
        13         5        6.408332e-02
        14         5       -2.079429e+00
        15         5        5.505747e-02
        16         5        2.179528e+00
        17         5        8.307267e-01
        18         5        3.993067e-01
        19         5        9.031558e-01
        20         5        7.477782e-01
        21         5       -4.530169e-02
        22         5        1.451881e+00
        23         5        4.808114e-01
        24         5        2.026304e+00
        25         5       -1.388913e+00
        26         5       -2.008762e+00
        27         5        1.286477e+00
        28         5        4.886528e-01
        29         5        1.883503e+00
        30         5       -8.451987e-01
        31         5       -6.331766e-01
        32         5        2.506906e-01
        33         5       -1.157044e-01
        34         5       -7.400311e-01
        35         5       -3.296560e-01
        36         5       -1.027974e+00
        37         5       -2.741411e-01
        38         5        9.495923e-01
        39         5       -2.746862e+00
        40         5        3.518601e-01
        41         5        7.092418e-01
        42         5        1.808920e-01
        43         5        1.173260e+00
        44         5        5.224283e-01
        45         5       -2.504987e+00
        46         5        7.291160e-01
        47         5        2.413930e-03
        48         5        8.720133e-01
        49         5        2.959363e-01
        50         5       -3.817471e-01
        51         5        1.159345e+00
        52         5        1.303340e+00
        53         5       -3.539400e-01
        54         5        8.815063e-01
        55         5        1.857769e+00
        56         5       -1.529890e-01
;

param theta:=
    1       -3.314539e-02
    2        5.627166e-01
    3       -1.192672e+00
    4       -2.625816e-01
    5       -5.179729e-03
;
param X_true:=
    1       -1.264771e+00
    2       -3.332425e-01
    3        4.679957e-01
    4        8.313572e-01
    5       -1.807036e+00
    6        2.938175e-01
    7        1.797204e+00
    8        7.311241e-01
    9        1.841303e-01
   10       -1.936989e-01
   11        2.770502e+00
   12       -2.611337e+00
   13        1.032645e-01
   14       -1.127765e+00
   15       -2.257844e-01
   16        9.038826e-02
   17        9.494822e-01
   18        2.509123e-01
   19       -6.296061e-01
   20        1.647639e+00
   21       -1.734692e-01
   22       -4.664317e-01
   23       -8.654458e-01
   24        7.876767e-01
   25        1.111621e+00
   26        6.889900e-01
   27       -1.260918e+00
   28       -8.641337e-01
   29       -3.022923e-01
   30       -6.375128e-01
   31        1.708532e+00
   32        6.009382e-01
   33       -9.784901e-01
   34       -4.666296e-02
   35        1.574924e+00
   36        5.601815e-01
   37       -4.885622e-02
   38        3.520116e-01
   39        4.840109e+00
   40       -1.849230e+00
   41        7.915728e-01
   42       -2.270548e-01
   43       -9.773792e-01
   44        1.674967e-01
   45        2.531017e-01
   46        5.115872e-01
   47       -1.139768e+00
   48       -1.974353e+00
   49        2.275863e+00
   50       -9.416400e-01
   51        7.875021e-02
   52       -2.047737e+00
   53       -3.158532e-01
   54        1.620284e-02
   55        2.802742e-01
   56       -2.265071e+00
;
param X:=
    1       -1.264771e+00
    2        1.486143e-01
    3        4.679957e-01
    4        8.313572e-01
    5       -1.237153e+00
    6        8.480889e-01
    7        5.007410e-01
    8        7.311241e-01
    9        1.225208e-01
   10        9.637987e-01
   11        2.770502e+00
   12       -1.524185e+00
   13       -6.069650e-01
   14       -1.258635e+00
   15       -6.426134e-01
   16       -9.140234e-01
   17       -3.055754e-02
   18       -4.039134e-01
   19       -5.201273e-01
   20        2.324022e+00
   21       -9.894649e-04
   22       -6.841055e-01
   23       -8.654458e-01
   24        9.549552e-01
   25        2.472000e-01
   26        1.570496e-01
   27       -5.064679e-01
   28       -9.163237e-01
   29        3.299915e-01
   30       -3.762847e-01
   31        1.708532e+00
   32        8.103609e-01
   33       -3.187867e-01
   34       -5.767995e-01
   35        1.574924e+00
   36        5.601815e-01
   37        2.783501e-01
   38        1.507175e+00
   39        4.840109e+00
   40       -1.264716e+00
   41        1.388227e+00
   42       -7.369769e-01
   43        1.209122e-01
   44       -6.691684e-01
   45        7.338848e-01
   46        5.115872e-01
   47       -1.436345e+00
   48       -3.784290e-01
   49        1.180278e+00
   50       -2.071839e+00
   51        9.325491e-02
   52       -1.378660e+00
   53       -6.768767e-01
   54        1.620284e-02
   55       -7.435553e-01
   56       -7.865296e-01
;
param outliervec:=
    1    0
    2    1
    3    0
    4    0
    5    1
    6    1
    7    1
    8    0
    9    1
   10    1
   11    0
   12    1
   13    1
   14    1
   15    1
   16    1
   17    1
   18    1
   19    1
   20    1
   21    1
   22    1
   23    0
   24    1
   25    1
   26    1
   27    1
   28    1
   29    1
   30    1
   31    0
   32    1
   33    1
   34    1
   35    0
   36    0
   37    1
   38    1
   39    0
   40    1
   41    1
   42    1
   43    1
   44    1
   45    1
   46    0
   47    1
   48    1
   49    1
   50    1
   51    1
   52    1
   53    1
   54    0
   55    1
   56    1
; 
param greedy_time :=         3.809591e-01
;